
Gurobi 11.0.3 (linux64) logging started Fri Nov 22 21:48:39 2024

Set parameter LogFile to value "/home/yihong/Coding/OR_SUC/SUC_results_bigM100000_thread4/case24_ieee_rts_theta0.1_epsilon0.025_gurobi_seed470000_num_gen100_N_WDR100_load_scaling_factor1_exact_T20quadra_cost.txt"
Set parameter TimeLimit to value 3600
Gurobi Optimizer version 11.0.3 build v11.0.3rc0 (linux64 - "Ubuntu 20.04.6 LTS")

CPU model: AMD EPYC 7532 32-Core Processor, instruction set [SSE2|AVX|AVX2]
Thread count: 64 physical cores, 128 logical processors, using up to 4 threads

Optimize a model with 43303 rows, 25001 columns and 593882 nonzeros
Model fingerprint: 0x3901d927
Model has 2000 quadratic constraints
Variable types: 22901 continuous, 2100 integer (2100 binary)
Coefficient statistics:
  Matrix range     [3e-05, 1e+05]
  QMatrix range    [2e-03, 8e-03]
  QLMatrix range   [1e-01, 6e+01]
  Objective range  [1e+00, 1e+00]
  Bounds range     [1e+00, 1e+00]
  RHS range        [1e+00, 1e+05]
Presolve removed 35083 rows and 10860 columns
Presolve time: 0.21s
Presolved: 8220 rows, 14141 columns, 52207 nonzeros
Presolved model has 2000 quadratic constraint(s)
Variable types: 12085 continuous, 2056 integer (2056 binary)

Root relaxation: objective 3.170266e+04, 6703 iterations, 0.15 seconds (0.22 work units)

    Nodes    |    Current Node    |     Objective Bounds      |     Work
 Expl Unexpl |  Obj  Depth IntInf | Incumbent    BestBd   Gap | It/Node Time

     0     0 31702.6576    0   24          - 31702.6576      -     -    0s
     0     0 328815.169    0  507          - 328815.169      -     -    0s
     0     0 330756.973    0  488          - 330756.973      -     -    0s
     0     0 509894.613    0  490          - 509894.613      -     -    1s
     0     0 509916.192    0  390          - 509916.192      -     -    1s
     0     0 510571.082    0  390          - 510571.082      -     -    1s
     0     0 510578.338    0  390          - 510578.338      -     -    1s
     0     0 510756.127    0  386          - 510756.127      -     -    1s
     0     0 510763.352    0  386          - 510763.352      -     -    1s
     0     2 510763.352    0  386          - 510763.352      -     -    2s
H  397   281                    510877.08510 510779.641  0.02%  45.2    3s
*  397   281             135    510877.08510 510779.641  0.02%  45.2    3s

Cutting planes:
  Gomory: 15
  Implied bound: 302
  MIR: 81
  Flow cover: 80
  PSD: 11

Explored 418 nodes (36641 simplex iterations) in 4.22 seconds (5.04 work units)
Thread count was 4 (of 128 available processors)

Solution count 2: 510877 510877 

Optimal solution found (tolerance 1.00e-03)
Warning: max constraint violation (2.2885e-07) exceeds tolerance
Best objective 5.108770850969e+05, best bound 5.107796413679e+05, gap 0.0191%
